single layer graphene                   
   1.0000000000000000     
     2.1434128724249999   -1.2375000000000000    0.0000000000000000
     2.1434128724249999    1.2375000000000000    0.0000000000000000
     0.0000000000000000    0.0000000000000000   20.0000000000000000
   C 
     2
Direct
  0.0000000000000000  0.0000000000000000  0.0000000000000000
  0.3333333333149966  0.3333333333149966  0.0000000000000000

  0.00000000E+00  0.00000000E+00  0.00000000E+00
  0.00000000E+00  0.00000000E+00  0.00000000E+00
