single layer graphene
 1.0000000000000000
     2.1434128724249999   -1.2375000000000000    0.0000000000000000
     2.1434128724249999    1.2375000000000000    0.0000000000000000
     0.0000000000000000    0.0000000000000000   20.0000000000000000
C   
2
Cartesian
  0.0000000000000000  0.0000000000000000  0.0000000000000000
  1.4289419148714080 -0.0000000000000000  0.0000000000000000
